(set-info :origin "SVCOMP13 benchmarks generated by Arie Gurfinkel")
(set-logic HORN)
(declare-fun cp-rel-entry () Bool)
(declare-fun cp-rel-bb.i122.i.outer62
             (Real
              Real
              Real
              Real
              Real
              Real
              Real
              Real
              Real
              Real
              Real
              Real
              Real
              Real)
             Bool)
(declare-fun cp-rel-bb.i
             (Real
              Real
              Real
              Real
              Real
              Real
              Real
              Real
              Real
              Real
              Real
              Real
              Real
              Real)
             Bool)
(declare-fun cp-rel-UnifiedReturnBlock () Bool)
(declare-fun cp-rel-__UFO__0
             (Real
              Real
              Real
              Real
              Real
              Real
              Real
              Real
              Real
              Real
              Real
              Real
              Real
              Real
              Real
              Real
              Real
              Real
              Real
              Real
              Real
              Real
              Real
              Real
              Real
              Real
              Real
              Real
              Bool
              Real
              Real
              Real
              Real
              Real
              Real
              Real
              Real
              Real
              Real
              Real
              Real
              Real
              Bool
              Bool
              Bool
              Bool
              Bool)
             Bool)
(declare-fun cp-rel-bb.i122.i
             (Real
              Real
              Real
              Real
              Real
              Real
              Real
              Real
              Real
              Real
              Real
              Real
              Real
              Real
              Real
              Bool
              Real
              Real
              Real
              Real
              Real
              Real
              Real
              Real
              Real
              Real
              Real
              Real
              Real)
             Bool)
(assert |cp-rel-entry|)
(assert (forall ((?A Real) (?B Real) (?C Real) (?D Real) (?E Real) (?F Real) (?G Real) (?H Real) (?I Real) (?J Real) (?K Real) (?L Real) (?M Real) (?N Real) (?O Bool) )(let (($x455139 (|cp-rel-bb.i| ?A ?B ?C ?D ?E ?F ?G ?H ?I ?J ?K ?L ?M ?N)))
(let (($x129154 (= ?O true)))
(let (($x481804 (and |cp-rel-entry| (<= ?N 0.0) (>= ?M 0.0) (<= ?M 0.0) (>= ?L 0.0) (<= ?L 0.0) (>= ?K 0.0) (<= ?K 0.0) (>= ?J 0.0) (<= ?J 0.0) (>= ?I 0.0) (<= ?I 0.0) (>= ?H 0.0) (<= ?H 0.0) (>= ?G 0.0) (<= ?G 0.0) (>= ?F 0.0) (<= ?F 0.0) (>= ?E 0.0) (<= ?E 0.0) (>= ?D 0.0) (<= ?D 0.0) (>= ?C 0.0) (<= ?C 0.0) (>= ?B 0.0) (<= ?B 0.0) (>= ?A 0.0) (<= ?A 0.0) $x129154 (>= ?N 0.0))))
(=> $x481804 $x455139)))))
)
(assert (forall ((?A Real) (?B Real) (?C Real) (?D Real) (?E Real) (?F Real) (?G Real) (?H Real) (?I Real) (?J Real) (?K Real) (?L Real) (?M Real) (?N Real) (?O Real) (?P Real) (?Q Real) (?R Real) (?S Real) (?T Real) (?U Real) (?V Real) (?W Real) (?X Real) (?Y Real) (?Z Real) (?A1 Real) (?B1 Real) (?C1 Real) (?D1 Bool) (?E1 Real) (?F1 Real) (?G1 Real) (?H1 Real) (?I1 Real) (?J1 Real) (?K1 Real) (?L1 Real) (?M1 Real) (?N1 Real) (?O1 Real) (?P1 Real) (?Q1 Real) (?R1 Bool) (?S1 Bool) (?T1 Bool) (?U1 Bool) (?V1 Bool) (?W1 Bool) (?X1 Bool) (?Y1 Bool) (?Z1 Bool) (?A2 Bool) (?B2 Bool) (?C2 Bool) (?D2 Bool) (?E2 Bool) (?F2 Bool) (?G2 Bool) (?H2 Bool) (?I2 Bool) (?J2 Bool) (?K2 Bool) (?L2 Bool) (?M2 Bool) (?N2 Bool) (?O2 Bool) (?P2 Bool) (?Q2 Bool) (?R2 Bool) (?S2 Bool) (?T2 Bool) (?U2 Bool) )(let (($x508118 (|cp-rel-bb.i| ?A ?B ?C ?D ?E ?F ?G ?H ?I ?J ?K ?L ?M ?N)))
(let (($x612639 (|cp-rel-bb.i122.i| ?O ?P ?Q ?R ?S ?T ?U ?V ?W ?X ?Y ?Z ?A1 ?B1 ?C1 ?D1 ?E1 ?F1 ?G1 ?H1 ?I1 ?J1 ?K1 ?L1 ?M1 ?N1 ?O1 ?P1 ?Q1)))
(let (($x318392 (and $x612639 (= ?U2 (or ?T2 ?I2)) (= ?T2 (or ?S2 ?H2)) (= ?S2 (or ?R2 ?G2)) (= ?R2 ?F2) (= ?A2 ?Q2) (= ?Q2 (or ?P2 ?F2)) (= ?P2 (or ?O2 ?G2)) (= ?O2 (or ?N2 ?H2)) (= ?N2 (or ?I2 ?J2)) (= ?X1 (or ?M2 ?J2)) (= ?M2 (or ?L2 ?I2)) (= ?L2 (or ?K2 ?H2)) (= ?K2 (or ?G2 ?F2)) (= ?J2 (= ?L1 0.0)) (= ?I2 (= ?K1 0.0)) (= ?H2 (= ?J1 0.0)) (= ?G2 (= ?I1 0.0)) (= ?F2 (= ?H1 0.0)) (= ?U1 (= ?G1 0.0)) (>= ?N ?Q1) (<= ?N ?Q1) (>= ?M ?P1) (<= ?M ?P1) (>= ?L ?O1) (<= ?L ?O1) (>= ?K ?N1) (<= ?K ?N1) (>= ?J ?M1) (<= ?J ?M1) (>= ?I ?C1) (<= ?I ?C1) (>= ?H ?L1) (<= ?H ?L1) (>= ?G ?K1) (<= ?G ?K1) (>= ?F ?J1) (<= ?F ?J1) (>= ?E ?I1) (<= ?E ?I1) (>= ?D ?H1) (<= ?D ?H1) (>= ?C ?G1) (<= ?C ?G1) (>= ?B ?F1) (<= ?B ?F1) (>= ?A ?E1) (<= ?A ?E1) (= ?E2 true) (= ?B2 true) (or (not ?B2) (and ?C2 (not ?D2)) (and ?D2 (not ?C2))) (or (not ?B2) (and ?Y1 ?C2) (and ?V1 ?D2 ?A2)) (or (not ?Y1) ?Z1) (or (not ?Y1) (and ?V1 ?Z1 (not ?A2))) (or (not ?V1) ?W1) (or (not ?V1) (and ?R1 ?W1 (not ?X1))) (or (not ?R1) ?T1) (or (not ?R1) (and ?S1 ?T1 (not ?U1))) (= ?E2 (or ?U2 ?J2)))))
(=> $x318392 $x508118)))))
)
(assert (forall ((?A Real) (?B Real) (?C Real) (?D Real) (?E Real) (?F Real) (?G Real) (?H Real) (?I Real) (?J Real) (?K Real) (?L Real) (?M Real) (?N Real) (?O Real) (?P Real) (?Q Real) (?R Real) (?S Real) (?T Real) (?U Real) (?V Real) (?W Real) (?X Real) (?Y Real) (?Z Real) (?A1 Real) (?B1 Real) (?C1 Bool) )(let (($x101016 (|cp-rel-bb.i122.i.outer62| ?O ?P ?Q ?R ?S ?T ?U ?V ?W ?X ?Y ?Z ?A1 ?B1)))
(let (($x129154 (= ?C1 true)))
(let (($x632274 (|cp-rel-bb.i| ?A ?B ?C ?D ?E ?F ?G ?H ?I ?J ?K ?L ?M ?N)))
(let (($x417932 (and $x632274 (<= ?B1 ?N) (>= ?A1 ?M) (<= ?A1 ?M) (>= ?Z ?L) (<= ?Z ?L) (>= ?Y ?K) (<= ?Y ?K) (>= ?X ?J) (<= ?X ?J) (>= ?W ?I) (<= ?W ?I) (>= ?V ?H) (<= ?V ?H) (>= ?U ?G) (<= ?U ?G) (>= ?T ?F) (<= ?T ?F) (>= ?S ?E) (<= ?S ?E) (>= ?R ?D) (<= ?R ?D) (>= ?Q ?C) (<= ?Q ?C) (>= ?P ?B) (<= ?P ?B) (>= ?O ?A) (<= ?O ?A) $x129154 (>= ?B1 ?N))))
(=> $x417932 $x101016))))))
)
(assert (forall ((?A Real) (?B Real) (?C Real) (?D Real) (?E Real) (?F Real) (?G Real) (?H Real) (?I Real) (?J Real) (?K Real) (?L Real) (?M Real) (?N Real) (?O Real) (?P Bool) (?Q Real) (?R Real) (?S Real) (?T Real) (?U Real) (?V Real) (?W Real) (?X Real) (?Y Real) (?Z Real) (?A1 Real) (?B1 Real) (?C1 Real) (?D1 Bool) (?E1 Bool) (?F1 Bool) (?G1 Bool) (?H1 Bool) (?I1 Bool) (?J1 Bool) (?K1 Bool) (?L1 Bool) (?M1 Bool) (?N1 Bool) (?O1 Bool) (?P1 Bool) (?Q1 Real) (?R1 Real) (?S1 Real) (?T1 Real) (?U1 Real) (?V1 Real) (?W1 Real) (?X1 Real) (?Y1 Real) (?Z1 Real) (?A2 Real) (?B2 Real) (?C2 Real) (?D2 Real) (?E2 Bool) (?F2 Bool) (?G2 Bool) (?H2 Bool) (?I2 Bool) (?J2 Bool) (?K2 Bool) (?L2 Bool) (?M2 Bool) (?N2 Bool) (?O2 Bool) (?P2 Bool) (?Q2 Bool) (?R2 Bool) (?S2 Real) (?T2 Real) (?U2 Real) (?V2 Real) (?W2 Real) (?X2 Real) (?Y2 Real) (?Z2 Bool) (?A3 Bool) (?B3 Bool) (?C3 Bool) (?D3 Bool) (?E3 Bool) (?F3 Bool) (?G3 Bool) (?H3 Bool) (?I3 Bool) (?J3 Bool) (?K3 Bool) (?L3 Bool) (?M3 Real) (?N3 Real) (?O3 Real) (?P3 Real) (?Q3 Real) (?R3 Real) (?S3 Bool) (?T3 Bool) (?U3 Bool) (?V3 Bool) (?W3 Bool) (?X3 Bool) (?Y3 Bool) (?Z3 Bool) (?A4 Bool) (?B4 Bool) (?C4 Bool) (?D4 Bool) (?E4 Bool) (?F4 Bool) (?G4 Real) (?H4 Real) (?I4 Real) (?J4 Real) (?K4 Real) (?L4 Real) (?M4 Bool) (?N4 Bool) (?O4 Bool) (?P4 Bool) (?Q4 Bool) (?R4 Bool) (?S4 Bool) (?T4 Bool) (?U4 Bool) (?V4 Bool) (?W4 Bool) (?X4 Bool) (?Y4 Bool) (?Z4 Bool) (?A5 Real) (?B5 Real) (?C5 Real) (?D5 Real) (?E5 Real) (?F5 Real) (?G5 Bool) (?H5 Bool) (?I5 Bool) (?J5 Bool) (?K5 Bool) (?L5 Bool) (?M5 Bool) (?N5 Bool) (?O5 Bool) (?P5 Bool) (?Q5 Bool) (?R5 Bool) (?S5 Bool) (?T5 Bool) (?U5 Real) (?V5 Real) (?W5 Real) (?X5 Real) (?Y5 Real) (?Z5 Real) (?A6 Bool) (?B6 Bool) (?C6 Bool) (?D6 Bool) (?E6 Bool) (?F6 Bool) (?G6 Bool) (?H6 Bool) (?I6 Bool) (?J6 Bool) (?K6 Bool) (?L6 Real) (?M6 Real) (?N6 Real) (?O6 Real) (?P6 Bool) (?Q6 Bool) (?R6 Real) (?S6 Bool) (?T6 Real) (?U6 Bool) (?V6 Real) (?W6 Bool) (?X6 Real) (?Y6 Bool) (?Z6 Real) (?A7 Real) (?B7 Bool) )(let (($x859110 (|cp-rel-bb.i122.i.outer62| ?Q1 ?R1 ?S1 ?T1 ?U1 ?V1 ?W1 ?X1 ?Y1 ?Z1 ?A2 ?B2 ?C2 ?D2)))
(let (($x62613 (or (not ?M2) (and ?J2 ?N2 (not ?O2)) (and ?G2 ?P2 (not ?L2)))))
(let (($x186326 (and ?D1 ?A3 ?H1 (<= ?S2 ?Q) (>= ?S2 ?Q) (<= ?U2 ?R) (>= ?U2 ?R) (<= ?V2 ?S) (>= ?V2 ?S) (<= ?W2 ?T) (>= ?W2 ?T) (<= ?Y2 ?C1) (>= ?Y2 ?C1))))
(let (($x130043 (and ?E2 ?Z2 ?I2 (<= ?S2 ?Q) (>= ?S2 ?Q) (<= ?U2 ?R) (>= ?U2 ?R) (<= ?V2 ?S) (>= ?V2 ?S) (<= ?W2 ?T) (>= ?W2 ?T) (<= ?Y2 ?C1) (>= ?Y2 ?C1))))
(let (($x424196 (and ?M2 ?R2 (<= ?S2 ?T2) (>= ?S2 ?T2) (<= ?U2 ?T2) (>= ?U2 ?T2) (<= ?V2 2.0) (>= ?V2 2.0) (<= ?W2 ?X2) (>= ?W2 ?X2) (<= ?Y2 1.0) (>= ?Y2 1.0))))
(let (($x869897 (or (not ?Q2) (and ?R2 (not ?Z2) (not ?A3)) (and ?Z2 (not ?R2) (not ?A3)) (and ?A3 (not ?R2) (not ?Z2)))))
(let (($x348506 (not ?B3)))
(let (($x356257 (or $x348506 ?C3)))
(let (($x210397 (>= ?P3 ?U)))
(let (($x106073 (<= ?P3 ?U)))
(let (($x133678 (>= ?M3 ?S2)))
(let (($x361491 (<= ?M3 ?S2)))
(let (($x866903 (and ?Q2 ?U3 (not ?D3) $x361491 $x133678 (<= ?O3 ?W2) (>= ?O3 ?W2) $x106073 $x210397 (<= ?R3 ?B1) (>= ?R3 ?B1))))
(let (($x568560 (and ?B3 ?T3 ?G3 $x361491 $x133678 (<= ?O3 ?W2) (>= ?O3 ?W2) $x106073 $x210397 (<= ?R3 ?B1) (>= ?R3 ?B1))))
(let (($x872033 (and ?E3 ?S3 (not ?J3) $x361491 $x133678 (<= ?O3 2.0) (>= ?O3 2.0) $x106073 $x210397 (<= ?R3 1.0) (>= ?R3 1.0))))
(let (($x647938 (and ?H3 ?L3 (<= ?M3 ?N3) (>= ?M3 ?N3) (<= ?O3 2.0) (>= ?O3 2.0) (<= ?P3 ?Q3) (>= ?P3 ?Q3) (<= ?R3 1.0) (>= ?R3 1.0))))
(let (($x126793 (or (not ?K3) (and ?L3 (not ?S3) (not ?T3) (not ?U3)) (and ?S3 (not ?L3) (not ?T3) (not ?U3)) (and ?T3 (not ?L3) (not ?S3) (not ?U3)) (and ?U3 (not ?L3) (not ?S3) (not ?T3)))))
(let (($x426826 (not ?V3)))
(let (($x821336 (or $x426826 ?W3)))
(let (($x866366 (>= ?J4 ?V)))
(let (($x242452 (<= ?J4 ?V)))
(let (($x513008 (>= ?G4 ?M3)))
(let (($x865493 (<= ?G4 ?M3)))
(let (($x628493 (and ?K3 ?O4 (not ?X3) $x865493 $x513008 (<= ?I4 ?P3) (>= ?I4 ?P3) $x242452 $x866366 (<= ?L4 ?A1) (>= ?L4 ?A1))))
(let (($x345488 (and ?V3 ?N4 ?A4 $x865493 $x513008 (<= ?I4 ?P3) (>= ?I4 ?P3) $x242452 $x866366 (<= ?L4 ?A1) (>= ?L4 ?A1))))
(let (($x118871 (and ?Y3 ?M4 (not ?D4) $x865493 $x513008 (<= ?I4 2.0) (>= ?I4 2.0) $x242452 $x866366 (<= ?L4 1.0) (>= ?L4 1.0))))
(let (($x380418 (and ?B4 ?F4 (<= ?G4 ?H4) (>= ?G4 ?H4) (<= ?I4 2.0) (>= ?I4 2.0) (<= ?J4 ?K4) (>= ?J4 ?K4) (<= ?L4 1.0) (>= ?L4 1.0))))
(let (($x219080 (or (not ?E4) (and ?F4 (not ?M4) (not ?N4) (not ?O4)) (and ?M4 (not ?F4) (not ?N4) (not ?O4)) (and ?N4 (not ?F4) (not ?M4) (not ?O4)) (and ?O4 (not ?F4) (not ?M4) (not ?N4)))))
(let (($x140001 (not ?P4)))
(let (($x294072 (or $x140001 ?Q4)))
(let (($x220738 (>= ?D5 ?W)))
(let (($x813791 (<= ?D5 ?W)))
(let (($x244211 (>= ?A5 ?G4)))
(let (($x256606 (<= ?A5 ?G4)))
(let (($x382253 (and ?E4 ?I5 (not ?R4) $x256606 $x244211 (<= ?C5 ?J4) (>= ?C5 ?J4) $x813791 $x220738 (<= ?F5 ?Z) (>= ?F5 ?Z))))
(let (($x810759 (and ?P4 ?H5 ?U4 $x256606 $x244211 (<= ?C5 ?J4) (>= ?C5 ?J4) $x813791 $x220738 (<= ?F5 ?Z) (>= ?F5 ?Z))))
(let (($x477677 (and ?S4 ?G5 (not ?X4) $x256606 $x244211 (<= ?C5 2.0) (>= ?C5 2.0) $x813791 $x220738 (<= ?F5 1.0) (>= ?F5 1.0))))
(let (($x846882 (and ?V4 ?Z4 (<= ?A5 ?B5) (>= ?A5 ?B5) (<= ?C5 2.0) (>= ?C5 2.0) (<= ?D5 ?E5) (>= ?D5 ?E5) (<= ?F5 1.0) (>= ?F5 1.0))))
(let (($x452269 (or (not ?Y4) (and ?Z4 (not ?G5) (not ?H5) (not ?I5)) (and ?G5 (not ?Z4) (not ?H5) (not ?I5)) (and ?H5 (not ?Z4) (not ?G5) (not ?I5)) (and ?I5 (not ?Z4) (not ?G5) (not ?H5)))))
(let (($x508927 (not ?J5)))
(let (($x595519 (or $x508927 ?K5)))
(let (($x253543 (not ?P5)))
(let (($x99726 (or $x253543 ?Q5)))
(let (($x452101 (>= ?X5 ?X)))
(let (($x278134 (<= ?X5 ?X)))
(let (($x568611 (>= ?U5 ?A5)))
(let (($x259627 (<= ?U5 ?A5)))
(let (($x63281 (not ?L5)))
(let (($x921205 (and ?Y4 ?C6 $x63281 $x259627 $x568611 (<= ?W5 ?D5) (>= ?W5 ?D5) $x278134 $x452101 (<= ?Z5 ?Y) (>= ?Z5 ?Y))))
(let (($x248946 (and ?J5 ?B6 ?O5 $x259627 $x568611 (<= ?W5 ?D5) (>= ?W5 ?D5) $x278134 $x452101 (<= ?Z5 ?Y) (>= ?Z5 ?Y))))
(let (($x604581 (and ?M5 ?A6 (not ?R5) $x259627 $x568611 (<= ?W5 2.0) (>= ?W5 2.0) $x278134 $x452101 (<= ?Z5 1.0) (>= ?Z5 1.0))))
(let (($x96401 (and ?P5 ?T5 (<= ?U5 ?V5) (>= ?U5 ?V5) (<= ?W5 2.0) (>= ?W5 2.0) (<= ?X5 ?Y5) (>= ?X5 ?Y5) (<= ?Z5 1.0) (>= ?Z5 1.0))))
(let (($x327977 (not ?S5)))
(let (($x266987 (or $x327977 (and ?T5 (not ?A6) (not ?B6) (not ?C6)) (and ?A6 (not ?T5) (not ?B6) (not ?C6)) (and ?B6 (not ?T5) (not ?A6) (not ?C6)) (and ?C6 (not ?T5) (not ?A6) (not ?B6)))))
(let (($x465336 (and ?G6 (not ?P) (<= ?Q1 ?U5) (>= ?Q1 ?U5) (<= ?R1 ?U2) (>= ?R1 ?U2) (<= ?S1 ?V2) (>= ?S1 ?V2) (<= ?T1 ?O3) (>= ?T1 ?O3) (<= ?U1 ?I4) (>= ?U1 ?I4) (<= ?V1 ?C5) (>= ?V1 ?C5) (<= ?W1 ?W5) (>= ?W1 ?W5) (<= ?X1 2.0) (>= ?X1 2.0) (<= ?Y1 1.0) (>= ?Y1 1.0) (<= ?Z1 ?Z5) (>= ?Z1 ?Z5) (<= ?A2 ?F5) (>= ?A2 ?F5) (<= ?B2 ?L4) (>= ?B2 ?L4) (<= ?C2 ?R3) (>= ?C2 ?R3) (<= ?D2 ?Y2) (>= ?D2 ?Y2))))
(let (($x576351 (and ?J6 (<= ?Q1 ?L6) (>= ?Q1 ?L6) (<= ?R1 ?U2) (>= ?R1 ?U2) (<= ?S1 ?M6) (>= ?S1 ?M6) (<= ?T1 ?O3) (>= ?T1 ?O3) (<= ?U1 ?I4) (>= ?U1 ?I4) (<= ?V1 ?C5) (>= ?V1 ?C5) (<= ?W1 ?W5) (>= ?W1 ?W5) (<= ?X1 2.0) (>= ?X1 2.0) (<= ?Y1 1.0) (>= ?Y1 1.0) (<= ?Z1 ?Z5) (>= ?Z1 ?Z5) (<= ?A2 ?F5) (>= ?A2 ?F5) (<= ?B2 ?L4) (>= ?B2 ?L4) (<= ?C2 ?R3) (>= ?C2 ?R3) (<= ?D2 ?Y2) (>= ?D2 ?Y2))))
(let (($x297789 (|cp-rel-bb.i122.i| ?A ?B ?C ?D ?E ?F ?G ?H ?I ?J ?K ?L ?M ?N ?O ?P ?Q ?R ?S ?T ?U ?V ?W ?X ?Y ?Z ?A1 ?B1 ?C1)))
(let (($x407496 (and $x297789 (= ?B7 (= ?Y2 1.0)) (= ?L6 (+ 1.0 ?U5)) (= ?I6 (= ?A7 0.0)) (= ?F6 (= ?X5 0.0)) (= ?Y5 (ite ?P 0.0 ?X)) (= ?V5 (+ 1.0 ?A5)) (= ?R5 (= ?Y 1.0)) (= ?O5 (= ?Z6 0.0)) (= ?L5 (= ?D5 0.0)) (= ?E5 (ite ?Y6 0.0 ?W)) (= ?Y6 (= ?Y 1.0)) (= ?B5 (+ 1.0 ?G4)) (= ?X4 (= ?Z 1.0)) (= ?U4 (= ?X6 0.0)) (= ?R4 (= ?J4 0.0)) (= ?K4 (ite ?W6 0.0 ?V)) (= ?W6 (= ?Z 1.0)) (= ?H4 (+ 1.0 ?M3)) (= ?D4 (= ?A1 1.0)) (= ?A4 (= ?V6 0.0)) (= ?X3 (= ?P3 0.0)) (= ?Q3 (ite ?U6 0.0 ?U)) (= ?U6 (= ?A1 1.0)) (= ?N3 (+ 1.0 ?S2)) (= ?J3 (= ?B1 1.0)) (= ?G3 (= ?T6 0.0)) (= ?D3 (= ?W2 0.0)) (= ?X2 (ite ?S6 0.0 ?T)) (= ?S6 (= ?B1 1.0)) (= ?O2 (or ?Q6 ?P6)) (= ?Q6 (= ?R6 5.0)) (= ?P6 (not (= ?O6 ?Q))) (= ?O6 (+ 5.0 ?R)) (= ?L2 (= ?C1 1.0)) (= ?H1 (or ?P1 ?M1)) (= ?P1 (or ?O1 ?L1)) (= ?O1 (or ?N1 ?K1)) (= ?N1 (or ?J1 ?I1)) (= ?M1 (= ?X 0.0)) (= ?L1 (= ?W 0.0)) (= ?K1 (= ?V 0.0)) (= ?J1 (= ?U 0.0)) (= ?I1 (= ?T 0.0)) (= ?I2 (= ?N6 0.0)) (= ?G1 (= ?S 0.0)) (or $x576351 $x465336) (or (not ?J6) ?K6) (or (not ?J6) (and ?G6 ?K6 ?P)) (or (not ?G6) ?H6) (or (not ?G6) (and ?D6 ?H6 (not ?I6))) (or (not ?D6) ?E6) (or (not ?D6) (and ?S5 ?E6 ?F6)) $x266987 (or $x327977 $x96401 $x604581 $x248946 $x921205) $x99726 (or $x253543 (and ?M5 ?Q5 ?R5)) (or (not ?M5) ?N5) (or (not ?M5) (and ?J5 ?N5 (not ?O5))) $x595519 (or $x508927 (and ?Y4 ?K5 ?L5)) $x452269 (or (not ?Y4) $x846882 $x477677 $x810759 $x382253) (or (not ?V4) ?W4) (or (not ?V4) (and ?S4 ?W4 ?X4)) (or (not ?S4) ?T4) (or (not ?S4) (and ?P4 ?T4 (not ?U4))) $x294072 (or $x140001 (and ?E4 ?Q4 ?R4)) $x219080 (or (not ?E4) $x380418 $x118871 $x345488 $x628493) (or (not ?B4) ?C4) (or (not ?B4) (and ?Y3 ?C4 ?D4)) (or (not ?Y3) ?Z3) (or (not ?Y3) (and ?V3 ?Z3 (not ?A4))) $x821336 (or $x426826 (and ?K3 ?W3 ?X3)) $x126793 (or (not ?K3) $x647938 $x872033 $x568560 $x866903) (or (not ?H3) ?I3) (or (not ?H3) (and ?E3 ?I3 ?J3)) (or (not ?E3) ?F3) (or (not ?E3) (and ?B3 ?F3 (not ?G3))) $x356257 (or $x348506 (and ?Q2 ?C3 ?D3)) $x869897 (or (not ?Q2) $x424196 $x130043 $x186326) (or (not ?M2) (and ?N2 (not ?P2)) (and ?P2 (not ?N2))) $x62613 (or (not ?J2) ?K2) (or (not ?J2) (and ?G2 ?K2 ?L2)) (or (not ?G2) ?H2) (or (not ?G2) (and ?E2 ?H2 (not ?I2))) (or (not ?D1) ?F1) (or (not ?D1) (and ?E1 ?F1 (not ?G1))) (or (not ?E2) ?F2) (or (not ?E2) (and ?E1 ?F2 ?G1)) (= ?M6 (ite ?B7 0.0 ?V2)))))
(=> $x407496 $x859110))))))))))))))))))))))))))))))))))))))))))))))))))))))))))))
)
(assert (forall ((?A Real) (?B Real) (?C Real) (?D Real) (?E Real) (?F Real) (?G Real) (?H Real) (?I Real) (?J Real) (?K Real) (?L Real) (?M Real) (?N Real) (?O Bool) (?P Real) (?Q Real) (?R Real) (?S Real) (?T Real) (?U Real) (?V Real) (?W Real) (?X Real) (?Y Real) (?Z Real) (?A1 Real) (?B1 Real) (?C1 Real) (?D1 Real) (?E1 Real) (?F1 Real) (?G1 Real) (?H1 Real) (?I1 Real) (?J1 Real) (?K1 Real) (?L1 Real) (?M1 Real) (?N1 Real) (?O1 Real) (?P1 Real) (?Q1 Bool) )(let (($x624790 (|cp-rel-bb.i122.i| ?A ?B ?C ?D ?E ?F ?G ?H ?I ?J ?K ?L ?M ?N ?K1 ?O ?P ?Q ?R ?S ?T ?U ?V ?W ?X ?Y ?Z ?A1 ?B1)))
(let (($x129154 (= ?Q1 true)))
(let (($x101016 (|cp-rel-bb.i122.i.outer62| ?C1 ?D1 ?E1 ?F1 ?G1 ?H1 ?I1 ?J1 ?K1 ?L1 ?M1 ?N1 ?O1 ?P1)))
(let (($x306100 (and $x101016 (>= ?B1 ?P1) (<= ?B1 ?P1) (>= ?A1 ?O1) (<= ?A1 ?O1) (>= ?Z ?N1) (<= ?Z ?N1) (>= ?Y ?M1) (<= ?Y ?M1) (>= ?X ?L1) (<= ?X ?L1) (>= ?W ?J1) (<= ?W ?J1) (>= ?V ?I1) (<= ?V ?I1) (>= ?U ?H1) (<= ?U ?H1) (>= ?T ?G1) (<= ?T ?G1) (>= ?S ?F1) (<= ?S ?F1) (>= ?R ?E1) (<= ?R ?E1) (>= ?Q ?D1) (<= ?Q ?D1) (>= ?P ?C1) (<= ?P ?C1) $x129154 (= ?O (= ?K1 1.0)))))
(=> $x306100 $x624790))))))
)
(assert (forall ((?A Real) (?B Real) (?C Real) (?D Real) (?E Real) (?F Real) (?G Real) (?H Real) (?I Real) (?J Real) (?K Real) (?L Real) (?M Real) (?N Real) (?O Real) (?P Bool) (?Q Real) (?R Real) (?S Real) (?T Real) (?U Real) (?V Real) (?W Real) (?X Real) (?Y Real) (?Z Real) (?A1 Real) (?B1 Real) (?C1 Real) (?D1 Bool) (?E1 Bool) (?F1 Bool) (?G1 Bool) (?H1 Bool) (?I1 Bool) (?J1 Bool) (?K1 Bool) (?L1 Bool) (?M1 Bool) (?N1 Bool) (?O1 Bool) (?P1 Bool) (?Q1 Bool) (?R1 Bool) (?S1 Bool) (?T1 Bool) (?U1 Bool) (?V1 Bool) (?W1 Bool) (?X1 Bool) (?Y1 Bool) (?Z1 Bool) (?A2 Bool) (?B2 Bool) (?C2 Bool) (?D2 Bool) (?E2 Real) (?F2 Real) (?G2 Real) (?H2 Real) (?I2 Real) (?J2 Real) (?K2 Real) (?L2 Bool) (?M2 Bool) (?N2 Bool) (?O2 Bool) (?P2 Bool) (?Q2 Bool) (?R2 Bool) (?S2 Bool) (?T2 Bool) (?U2 Bool) (?V2 Bool) (?W2 Bool) (?X2 Bool) (?Y2 Real) (?Z2 Real) (?A3 Real) (?B3 Real) (?C3 Real) (?D3 Real) (?E3 Bool) (?F3 Bool) (?G3 Bool) (?H3 Bool) (?I3 Bool) (?J3 Bool) (?K3 Bool) (?L3 Bool) (?M3 Bool) (?N3 Bool) (?O3 Bool) (?P3 Bool) (?Q3 Bool) (?R3 Bool) (?S3 Real) (?T3 Real) (?U3 Real) (?V3 Real) (?W3 Real) (?X3 Real) (?Y3 Bool) (?Z3 Bool) (?A4 Bool) (?B4 Bool) (?C4 Bool) (?D4 Bool) (?E4 Bool) (?F4 Bool) (?G4 Bool) (?H4 Bool) (?I4 Bool) (?J4 Bool) (?K4 Bool) (?L4 Bool) (?M4 Real) (?N4 Real) (?O4 Real) (?P4 Real) (?Q4 Real) (?R4 Real) (?S4 Bool) (?T4 Bool) (?U4 Bool) (?V4 Bool) (?W4 Bool) (?X4 Bool) (?Y4 Bool) (?Z4 Bool) (?A5 Bool) (?B5 Bool) (?C5 Bool) (?D5 Bool) (?E5 Bool) (?F5 Bool) (?G5 Real) (?H5 Real) (?I5 Real) (?J5 Real) (?K5 Real) (?L5 Real) (?M5 Bool) (?N5 Bool) (?O5 Bool) (?P5 Bool) (?Q5 Bool) (?R5 Bool) (?S5 Bool) (?T5 Real) (?U5 Real) (?V5 Bool) (?W5 Bool) (?X5 Real) (?Y5 Bool) (?Z5 Real) (?A6 Bool) (?B6 Real) (?C6 Bool) (?D6 Real) (?E6 Bool) (?F6 Real) (?G6 Real) (?H6 Real) (?I6 Real) (?J6 Real) (?K6 Real) (?L6 Real) (?M6 Real) (?N6 Real) (?O6 Real) (?P6 Real) (?Q6 Real) (?R6 Real) (?S6 Real) (?T6 Real) )(let (($x410960 (|cp-rel-bb.i122.i| ?A ?B ?C ?D ?E ?F ?G ?H ?I ?J ?K ?L ?M ?N ?O ?P ?H6 ?I6 ?J6 ?K6 ?L6 ?M6 ?N6 ?O6 ?P6 ?Q6 ?R6 ?S6 ?T6)))
(let (($x544165 (not ?Y1)))
(let (($x466418 (and ?D1 ?M2 ?H1 (<= ?E2 ?Q) (>= ?E2 ?Q) (<= ?G2 ?R) (>= ?G2 ?R) (<= ?H2 ?S) (>= ?H2 ?S) (<= ?I2 ?T) (>= ?I2 ?T) (<= ?K2 ?C1) (>= ?K2 ?C1))))
(let (($x419918 (and ?Q1 ?L2 ?U1 (<= ?E2 ?Q) (>= ?E2 ?Q) (<= ?G2 ?R) (>= ?G2 ?R) (<= ?H2 ?S) (>= ?H2 ?S) (<= ?I2 ?T) (>= ?I2 ?T) (<= ?K2 ?C1) (>= ?K2 ?C1))))
(let (($x105664 (and ?Y1 ?D2 (<= ?E2 ?F2) (>= ?E2 ?F2) (<= ?G2 ?F2) (>= ?G2 ?F2) (<= ?H2 2.0) (>= ?H2 2.0) (<= ?I2 ?J2) (>= ?I2 ?J2) (<= ?K2 1.0) (>= ?K2 1.0))))
(let (($x844829 (or (not ?C2) (and ?D2 (not ?L2) (not ?M2)) (and ?L2 (not ?D2) (not ?M2)) (and ?M2 (not ?D2) (not ?L2)))))
(let (($x348506 (not ?T2)))
(let (($x356257 (or $x348506 ?U2)))
(let (($x68693 (>= ?B3 ?U)))
(let (($x554150 (<= ?B3 ?U)))
(let (($x262222 (>= ?Y2 ?E2)))
(let (($x567601 (<= ?Y2 ?E2)))
(let (($x98825 (and ?C2 ?G3 (not ?P2) $x567601 $x262222 (<= ?A3 ?I2) (>= ?A3 ?I2) $x554150 $x68693 (<= ?D3 ?B1) (>= ?D3 ?B1))))
(let (($x619903 (and ?N2 ?F3 ?S2 $x567601 $x262222 (<= ?A3 ?I2) (>= ?A3 ?I2) $x554150 $x68693 (<= ?D3 ?B1) (>= ?D3 ?B1))))
(let (($x570311 (and ?Q2 ?E3 (not ?V2) $x567601 $x262222 (<= ?A3 2.0) (>= ?A3 2.0) $x554150 $x68693 (<= ?D3 1.0) (>= ?D3 1.0))))
(let (($x94960 (and ?T2 ?X2 (<= ?Y2 ?Z2) (>= ?Y2 ?Z2) (<= ?A3 2.0) (>= ?A3 2.0) (<= ?B3 ?C3) (>= ?B3 ?C3) (<= ?D3 1.0) (>= ?D3 1.0))))
(let (($x859108 (not ?W2)))
(let (($x606901 (or $x859108 (and ?X2 (not ?E3) (not ?F3) (not ?G3)) (and ?E3 (not ?X2) (not ?F3) (not ?G3)) (and ?F3 (not ?X2) (not ?E3) (not ?G3)) (and ?G3 (not ?X2) (not ?E3) (not ?F3)))))
(let (($x426826 (not ?N3)))
(let (($x821336 (or $x426826 ?O3)))
(let (($x515608 (>= ?V3 ?V)))
(let (($x855339 (<= ?V3 ?V)))
(let (($x924470 (>= ?S3 ?Y2)))
(let (($x428569 (<= ?S3 ?Y2)))
(let (($x192727 (and ?W2 ?A4 (not ?J3) $x428569 $x924470 (<= ?U3 ?B3) (>= ?U3 ?B3) $x855339 $x515608 (<= ?X3 ?A1) (>= ?X3 ?A1))))
(let (($x570065 (and ?H3 ?Z3 ?M3 $x428569 $x924470 (<= ?U3 ?B3) (>= ?U3 ?B3) $x855339 $x515608 (<= ?X3 ?A1) (>= ?X3 ?A1))))
(let (($x377150 (and ?K3 ?Y3 (not ?P3) $x428569 $x924470 (<= ?U3 2.0) (>= ?U3 2.0) $x855339 $x515608 (<= ?X3 1.0) (>= ?X3 1.0))))
(let (($x863403 (and ?N3 ?R3 (<= ?S3 ?T3) (>= ?S3 ?T3) (<= ?U3 2.0) (>= ?U3 2.0) (<= ?V3 ?W3) (>= ?V3 ?W3) (<= ?X3 1.0) (>= ?X3 1.0))))
(let (($x152292 (not ?Q3)))
(let (($x846021 (or $x152292 (and ?R3 (not ?Y3) (not ?Z3) (not ?A4)) (and ?Y3 (not ?R3) (not ?Z3) (not ?A4)) (and ?Z3 (not ?R3) (not ?Y3) (not ?A4)) (and ?A4 (not ?R3) (not ?Y3) (not ?Z3)))))
(let (($x140001 (not ?H4)))
(let (($x294072 (or $x140001 ?I4)))
(let (($x846341 (>= ?P4 ?W)))
(let (($x321953 (<= ?P4 ?W)))
(let (($x46059 (>= ?M4 ?S3)))
(let (($x280772 (<= ?M4 ?S3)))
(let (($x199229 (and ?Q3 ?U4 (not ?D4) $x280772 $x46059 (<= ?O4 ?V3) (>= ?O4 ?V3) $x321953 $x846341 (<= ?R4 ?Z) (>= ?R4 ?Z))))
(let (($x17422 (and ?B4 ?T4 ?G4 $x280772 $x46059 (<= ?O4 ?V3) (>= ?O4 ?V3) $x321953 $x846341 (<= ?R4 ?Z) (>= ?R4 ?Z))))
(let (($x856772 (and ?E4 ?S4 (not ?J4) $x280772 $x46059 (<= ?O4 2.0) (>= ?O4 2.0) $x321953 $x846341 (<= ?R4 1.0) (>= ?R4 1.0))))
(let (($x462663 (and ?H4 ?L4 (<= ?M4 ?N4) (>= ?M4 ?N4) (<= ?O4 2.0) (>= ?O4 2.0) (<= ?P4 ?Q4) (>= ?P4 ?Q4) (<= ?R4 1.0) (>= ?R4 1.0))))
(let (($x351224 (not ?K4)))
(let (($x629287 (or $x351224 (and ?L4 (not ?S4) (not ?T4) (not ?U4)) (and ?S4 (not ?L4) (not ?T4) (not ?U4)) (and ?T4 (not ?L4) (not ?S4) (not ?U4)) (and ?U4 (not ?L4) (not ?S4) (not ?T4)))))
(let (($x508927 (not ?B5)))
(let (($x595519 (or $x508927 ?C5)))
(let (($x174579 (>= ?J5 ?X)))
(let (($x833701 (<= ?J5 ?X)))
(let (($x850460 (>= ?G5 ?M4)))
(let (($x233243 (<= ?G5 ?M4)))
(let (($x808648 (and ?K4 ?O5 (not ?X4) $x233243 $x850460 (<= ?I5 ?P4) (>= ?I5 ?P4) $x833701 $x174579 (<= ?L5 ?Y) (>= ?L5 ?Y))))
(let (($x838267 (and ?V4 ?N5 ?A5 $x233243 $x850460 (<= ?I5 ?P4) (>= ?I5 ?P4) $x833701 $x174579 (<= ?L5 ?Y) (>= ?L5 ?Y))))
(let (($x63281 (not ?D5)))
(let (($x270885 (and ?Y4 ?M5 $x63281 $x233243 $x850460 (<= ?I5 2.0) (>= ?I5 2.0) $x833701 $x174579 (<= ?L5 1.0) (>= ?L5 1.0))))
(let (($x129284 (and ?B5 ?F5 (<= ?G5 ?H5) (>= ?G5 ?H5) (<= ?I5 2.0) (>= ?I5 2.0) (<= ?J5 ?K5) (>= ?J5 ?K5) (<= ?L5 1.0) (>= ?L5 1.0))))
(let (($x445898 (not ?E5)))
(let (($x436447 (or $x445898 (and ?F5 (not ?M5) (not ?N5) (not ?O5)) (and ?M5 (not ?F5) (not ?N5) (not ?O5)) (and ?N5 (not ?F5) (not ?M5) (not ?O5)) (and ?O5 (not ?F5) (not ?M5) (not ?N5)))))
(let (($x241509 (and ?E5 (not ?R5) (<= ?H6 ?G5) (>= ?H6 ?G5) (<= ?I6 ?G2) (>= ?I6 ?G2) (<= ?J6 ?H2) (>= ?J6 ?H2) (<= ?K6 ?A3) (>= ?K6 ?A3) (<= ?L6 ?U3) (>= ?L6 ?U3) (<= ?M6 ?O4) (>= ?M6 ?O4) (<= ?N6 ?I5) (>= ?N6 ?I5) (<= ?O6 ?J5) (>= ?O6 ?J5) (<= ?P6 ?L5) (>= ?P6 ?L5) (<= ?Q6 ?R4) (>= ?Q6 ?R4) (<= ?R6 ?X3) (>= ?R6 ?X3) (<= ?S6 ?D3) (>= ?S6 ?D3) (<= ?T6 ?K2) (>= ?T6 ?K2))))
(let (($x245969 (and ?P5 ?S5 (<= ?H6 ?G5) (>= ?H6 ?G5) (<= ?I6 ?G2) (>= ?I6 ?G2) (<= ?J6 ?H2) (>= ?J6 ?H2) (<= ?K6 ?A3) (>= ?K6 ?A3) (<= ?L6 ?U3) (>= ?L6 ?U3) (<= ?M6 ?O4) (>= ?M6 ?O4) (<= ?N6 ?I5) (>= ?N6 ?I5) (<= ?O6 ?J5) (>= ?O6 ?J5) (<= ?P6 ?L5) (>= ?P6 ?L5) (<= ?Q6 ?R4) (>= ?Q6 ?R4) (<= ?R6 ?X3) (>= ?R6 ?X3) (<= ?S6 ?D3) (>= ?S6 ?D3) (<= ?T6 ?K2) (>= ?T6 ?K2))))
(let (($x522414 (|cp-rel-bb.i122.i| ?A ?B ?C ?D ?E ?F ?G ?H ?I ?J ?K ?L ?M ?N ?O ?P ?Q ?R ?S ?T ?U ?V ?W ?X ?Y ?Z ?A1 ?B1 ?C1)))
(let (($x233306 (and $x522414 (= ?R5 (= ?J5 0.0)) (= ?K5 (ite ?P 0.0 ?X)) (= ?H5 (+ 1.0 ?M4)) (= ?D5 (= ?Y 1.0)) (= ?A5 (= ?F6 0.0)) (= ?X4 (= ?P4 0.0)) (= ?Q4 (ite ?E6 0.0 ?W)) (= ?E6 (= ?Y 1.0)) (= ?N4 (+ 1.0 ?S3)) (= ?J4 (= ?Z 1.0)) (= ?G4 (= ?D6 0.0)) (= ?D4 (= ?V3 0.0)) (= ?W3 (ite ?C6 0.0 ?V)) (= ?C6 (= ?Z 1.0)) (= ?T3 (+ 1.0 ?Y2)) (= ?P3 (= ?A1 1.0)) (= ?M3 (= ?B6 0.0)) (= ?J3 (= ?B3 0.0)) (= ?C3 (ite ?A6 0.0 ?U)) (= ?A6 (= ?A1 1.0)) (= ?Z2 (+ 1.0 ?E2)) (= ?V2 (= ?B1 1.0)) (= ?S2 (= ?Z5 0.0)) (= ?P2 (= ?I2 0.0)) (= ?J2 (ite ?Y5 0.0 ?T)) (= ?Y5 (= ?B1 1.0)) (= ?A2 (or ?W5 ?V5)) (= ?W5 (= ?X5 5.0)) (= ?V5 (not (= ?U5 ?Q))) (= ?U5 (+ 5.0 ?R)) (= ?X1 (= ?C1 1.0)) (= ?H1 (or ?P1 ?M1)) (= ?P1 (or ?O1 ?L1)) (= ?O1 (or ?N1 ?K1)) (= ?N1 (or ?J1 ?I1)) (= ?M1 (= ?X 0.0)) (= ?L1 (= ?W 0.0)) (= ?K1 (= ?V 0.0)) (= ?J1 (= ?U 0.0)) (= ?I1 (= ?T 0.0)) (= ?U1 (= ?T5 0.0)) (= ?G1 (= ?S 0.0)) (or $x245969 $x241509) (or (not ?P5) ?Q5) (or (not ?P5) (and ?E5 ?Q5 ?R5)) $x436447 (or $x445898 $x129284 $x270885 $x838267 $x808648) $x595519 (or $x508927 (and ?Y4 ?C5 ?D5)) (or (not ?Y4) ?Z4) (or (not ?Y4) (and ?V4 ?Z4 (not ?A5))) (or (not ?V4) ?W4) (or (not ?V4) (and ?K4 ?W4 ?X4)) $x629287 (or $x351224 $x462663 $x856772 $x17422 $x199229) $x294072 (or $x140001 (and ?E4 ?I4 ?J4)) (or (not ?E4) ?F4) (or (not ?E4) (and ?B4 ?F4 (not ?G4))) (or (not ?B4) ?C4) (or (not ?B4) (and ?Q3 ?C4 ?D4)) $x846021 (or $x152292 $x863403 $x377150 $x570065 $x192727) $x821336 (or $x426826 (and ?K3 ?O3 ?P3)) (or (not ?K3) ?L3) (or (not ?K3) (and ?H3 ?L3 (not ?M3))) (or (not ?H3) ?I3) (or (not ?H3) (and ?W2 ?I3 ?J3)) $x606901 (or $x859108 $x94960 $x570311 $x619903 $x98825) $x356257 (or $x348506 (and ?Q2 ?U2 ?V2)) (or (not ?Q2) ?R2) (or (not ?Q2) (and ?N2 ?R2 (not ?S2))) (or (not ?N2) ?O2) (or (not ?N2) (and ?C2 ?O2 ?P2)) $x844829 (or (not ?C2) $x105664 $x419918 $x466418) (or $x544165 (and ?Z1 (not ?B2)) (and ?B2 (not ?Z1))) (or $x544165 (and ?V1 ?Z1 (not ?A2)) (and ?S1 ?B2 (not ?X1))) (or (not ?V1) ?W1) (or (not ?V1) (and ?S1 ?W1 ?X1)) (or (not ?S1) ?T1) (or (not ?S1) (and ?Q1 ?T1 (not ?U1))) (or (not ?D1) ?F1) (or (not ?D1) (and ?E1 ?F1 (not ?G1))) (or (not ?Q1) ?R1) (or (not ?Q1) (and ?E1 ?R1 ?G1)) (= ?S5 (= ?G6 0.0)))))
(=> $x233306 $x410960)))))))))))))))))))))))))))))))))))))))))))))))))))))))))))))
)
(assert (forall ((?A Real) (?B Real) (?C Real) (?D Real) (?E Real) (?F Real) (?G Real) (?H Real) (?I Real) (?J Real) (?K Real) (?L Real) (?M Real) (?N Real) (?O Real) (?P Bool) (?Q Real) (?R Real) (?S Real) (?T Real) (?U Real) (?V Real) (?W Real) (?X Real) (?Y Real) (?Z Real) (?A1 Real) (?B1 Real) (?C1 Real) (?D1 Bool) (?E1 Bool) (?F1 Bool) (?G1 Bool) (?H1 Bool) (?I1 Bool) (?J1 Bool) (?K1 Bool) (?L1 Bool) (?M1 Bool) (?N1 Bool) (?O1 Bool) (?P1 Bool) (?Q1 Bool) (?R1 Bool) (?S1 Bool) (?T1 Bool) (?U1 Bool) (?V1 Bool) (?W1 Bool) (?X1 Bool) (?Y1 Bool) (?Z1 Bool) (?A2 Bool) (?B2 Bool) (?C2 Bool) (?D2 Bool) (?E2 Bool) (?F2 Bool) (?G2 Bool) (?H2 Real) (?I2 Real) (?J2 Real) (?K2 Real) (?L2 Real) (?M2 Real) (?N2 Real) (?O2 Real) (?P2 Real) (?Q2 Real) (?R2 Real) (?S2 Real) (?T2 Real) )(let (($x865161 (|cp-rel-__UFO__0| ?A ?B ?C ?D ?E ?F ?G ?H ?I ?J ?K ?L ?M ?N ?H2 ?I2 ?J2 ?K2 ?L2 ?M2 ?N2 ?O2 ?O ?P2 ?Q2 ?R2 ?S2 ?T2 ?P ?Q ?R ?S ?T ?U ?V ?W ?X ?Y ?Z ?A1 ?B1 ?C1 ?R1 ?S1 ?T1 ?U1 ?V1)))
(let (($x253543 (not ?H1)))
(let (($x99726 (or $x253543 ?I1)))
(let (($x621052 (|cp-rel-bb.i122.i| ?A ?B ?C ?D ?E ?F ?G ?H ?I ?J ?K ?L ?M ?N ?O ?P ?Q ?R ?S ?T ?U ?V ?W ?X ?Y ?Z ?A1 ?B1 ?C1)))
(let (($x410453 (and $x621052 (= ?G2 (or ?F2 ?U1)) (= ?F2 (or ?E2 ?T1)) (= ?E2 (or ?D2 ?S1)) (= ?D2 ?R1) (= ?M1 ?C2) (= ?C2 (or ?B2 ?R1)) (= ?B2 (or ?A2 ?S1)) (= ?A2 (or ?Z1 ?T1)) (= ?Z1 (or ?U1 ?V1)) (= ?J1 (or ?Y1 ?V1)) (= ?Y1 (or ?X1 ?U1)) (= ?X1 (or ?W1 ?T1)) (= ?W1 (or ?S1 ?R1)) (= ?V1 (= ?X 0.0)) (= ?U1 (= ?W 0.0)) (= ?T1 (= ?V 0.0)) (= ?S1 (= ?U 0.0)) (= ?R1 (= ?T 0.0)) (= ?G1 (= ?S 0.0)) (not (= ?Q1 true)) (= ?N1 true) (or (not ?N1) (and ?O1 (not ?P1)) (and ?P1 (not ?O1))) (or (not ?N1) (and ?K1 ?O1) (and ?H1 ?P1 ?M1)) (or (not ?K1) ?L1) (or (not ?K1) (and ?H1 ?L1 (not ?M1))) $x99726 (or $x253543 (and ?D1 ?I1 (not ?J1))) (or (not ?D1) ?F1) (or (not ?D1) (and ?E1 ?F1 (not ?G1))) (= ?Q1 (or ?G2 ?V1)))))
(=> $x410453 $x865161)))))))
)
(assert (forall ((?A Real) (?B Real) (?C Real) (?D Real) (?E Real) (?F Real) (?G Real) (?H Real) (?I Real) (?J Real) (?K Real) (?L Real) (?M Real) (?N Real) (?O Real) (?P Bool) (?Q Bool) (?R Bool) (?S Bool) (?T Bool) (?U Bool) (?V Real) (?W Real) (?X Real) (?Y Real) (?Z Real) (?A1 Real) (?B1 Real) (?C1 Real) (?D1 Real) (?E1 Real) (?F1 Real) (?G1 Real) (?H1 Real) (?I1 Real) (?J1 Real) (?K1 Real) (?L1 Real) (?M1 Real) (?N1 Real) (?O1 Real) (?P1 Real) (?Q1 Real) (?R1 Real) (?S1 Real) (?T1 Real) (?U1 Real) (?V1 Bool) )(let (($x867544 (|cp-rel-__UFO__0| ?A ?B ?C ?D ?E ?F ?G ?H ?I ?J ?K ?L ?M ?N ?V ?W ?X ?Y ?Z ?A1 ?B1 ?C1 ?O ?D1 ?E1 ?F1 ?G1 ?H1 ?P ?I1 ?J1 ?K1 ?L1 ?M1 ?N1 ?O1 ?P1 ?Q1 ?R1 ?S1 ?T1 ?U1 ?Q ?R ?S ?T ?U)))
(=> (and $x867544 (= ?V1 true)) $x867544)))
)
(assert (forall ((?A Real) (?B Real) (?C Real) (?D Real) (?E Real) (?F Real) (?G Real) (?H Real) (?I Real) (?J Real) (?K Real) (?L Real) (?M Real) (?N Real) (?O Real) (?P Bool) (?Q Real) (?R Real) (?S Real) (?T Real) (?U Real) (?V Real) (?W Real) (?X Real) (?Y Real) (?Z Real) (?A1 Real) (?B1 Real) (?C1 Real) (?D1 Bool) (?E1 Bool) (?F1 Bool) (?G1 Bool) (?H1 Bool) (?I1 Bool) (?J1 Bool) (?K1 Bool) (?L1 Bool) (?M1 Bool) (?N1 Bool) (?O1 Real) (?P1 Real) (?Q1 Bool) (?R1 Bool) (?S1 Real) )(let (($x426786 (|cp-rel-bb.i122.i| ?A ?B ?C ?D ?E ?F ?G ?H ?I ?J ?K ?L ?M ?N ?O ?P ?Q ?R ?S ?T ?U ?V ?W ?X ?Y ?Z ?A1 ?B1 ?C1)))
(let (($x572644 (and $x426786 (= ?R1 (= ?S1 5.0)) (= ?Q1 (not (= ?P1 ?Q))) (= ?P1 (+ 5.0 ?R)) (= ?M1 (= ?C1 1.0)) (= ?J1 (= ?O1 0.0)) (= ?E1 (= ?S 0.0)) (= ?N1 true) (= ?K1 true) (or (not ?K1) ?L1) (or (not ?K1) (and ?H1 ?L1 ?M1)) (or (not ?H1) ?I1) (or (not ?H1) (and ?F1 ?I1 (not ?J1))) (or (not ?F1) ?G1) (or (not ?F1) (and ?D1 ?G1 ?E1)) (= ?N1 (or ?R1 ?Q1)))))
(=> $x572644 |cp-rel-UnifiedReturnBlock|))))
)
(assert (not cp-rel-UnifiedReturnBlock))
(check-sat)
